Version identifier: 20.1.0.0 | 2020-11-10 | 9bedb6d68
CPXPARAM_Threads                                 1
CPXPARAM_TimeLimit                               7200
CPXPARAM_MIP_Tolerances_MIPGap                   0
Generic callback                                 0x60
1 of 1 MIP starts provided solutions.
MIP start 'm1' defined initial solution with objective 2140.9231.
Tried aggregator 1 time.
Reduced MIP has 1 rows, 1001 columns, and 1000 nonzeros.
Reduced MIP has 1000 binaries, 0 generals, 0 SOSs, and 0 indicators.
Presolve time = 0.00 sec. (0.30 ticks)
Probing time = 0.00 sec. (0.11 ticks)
Tried aggregator 1 time.
Reduced MIP has 1 rows, 1001 columns, and 1000 nonzeros.
Reduced MIP has 1000 binaries, 0 generals, 0 SOSs, and 0 indicators.
Presolve time = 0.00 sec. (0.31 ticks)
Probing time = 0.00 sec. (0.11 ticks)
MIP emphasis: balance optimality and feasibility.
MIP search method: dynamic search.
Parallel mode: none, using 1 thread.
Root relaxation solution time = 0.00 sec. (0.21 ticks)

        Nodes                                         Cuts/
   Node  Left     Objective  IInf  Best Integer    Best Bound    ItCnt     Gap

*     0+    0                         2140.9231     4368.0000           104.02%
      0     0     2669.2657     2     2140.9231     4368.0000        0  104.02%
      0     0     2483.6194     3     2140.9231 UserPurge2: 1       22   16.01%
      0     0     2375.3473     4     2140.9231 UserPurge2: 1       36   10.95%
      0     0     2334.4518     4     2140.9231 UserPurge2: 1       40    9.04%
*     0+    0                         2177.3914     2334.4518             7.21%
      0     0     2257.4135     3     2177.3914 UserPurge2: 1       54    3.68%
*     0+    0                         2178.9834     2257.4135             3.60%

Repeating presolve.
Tried aggregator 1 time.
MIP Presolve eliminated 0 rows and 507 columns.
Reduced MIP has 1 rows, 494 columns, and 493 nonzeros.
Reduced MIP has 493 binaries, 0 generals, 0 SOSs, and 0 indicators.
Presolve time = 0.00 sec. (0.24 ticks)
Probing time = 0.00 sec. (0.05 ticks)
Tried aggregator 1 time.
Reduced MIP has 1 rows, 494 columns, and 493 nonzeros.
Reduced MIP has 493 binaries, 0 generals, 0 SOSs, and 0 indicators.
Presolve time = 0.00 sec. (0.15 ticks)
Represolve time = 0.00 sec. (2.11 ticks)
Probing time = 0.00 sec. (0.05 ticks)
MIP emphasis: balance optimality and feasibility.
MIP search method: dynamic search.
Parallel mode: none, using 1 thread.
Root relaxation solution time = 0.00 sec. (0.68 ticks)

        Nodes                                         Cuts/
   Node  Left     Objective  IInf  Best Integer    Best Bound    ItCnt     Gap

*     0+    0                         2178.9834     2257.4135             3.60%
      0     0     2257.1051     4     2178.9834     2257.1051       68    3.59%
      0     0     2256.8592     5     2178.9834 UserPurge2: 1       70    3.57%
      0     0     2253.8202     4     2178.9834 UserPurge2: 1       73    3.43%
      0     0     2245.8667     4     2178.9834 UserPurge2: 1       83    3.07%
      0     0     2245.5075     5     2178.9834 UserPurge2: 1       85    3.05%
      0     0     2236.6205     5     2178.9834 UserPurge2: 1       97    2.65%
      0     0     2228.1915     6     2178.9834 UserPurge2: 1      105    2.26%
*     0+    0                         2181.8245     2228.1915             2.13%
      0     2     2228.1915     6     2181.8245     2228.1765      105    2.12%
Elapsed time = 28.83 sec. (24.75 ticks, tree = 0.01 MB, solutions = 4)
*     1     1      integral     0     2184.0000     2208.2955      527    1.11%

User cuts applied:  90

Root node processing (before b&c):
  Real time             =   28.83 sec. (24.92 ticks)
Sequential b&c:
  Real time             =   13.21 sec. (46.91 ticks)
                          ------------
Total (root+branch&cut) =   42.05 sec. (71.83 ticks)
@Parameters: 
is_S_cut                                true
is_add_all_yinF                         true
is_start_value                          true
is_usercut                              true
is_visualization                        false
uc_only_rootnode                        false

data                                    Qi
fn                                      data/Qi/instance_800_1000.csv
mode                                    NewSubmodular
solver                                  cplex

p                                       2
r                                       2

EPS                                     1.0e-06
EPS_vio                                 1.0e-04
beta                                    0.10
gap                                     0.00
nodelimit                               Inf
timelimit                               7200.00


@PrintInfos
ItCnt: 533
Current gap: 0.00 %
Termination Status: OPTIMAL
Primal Status: FEASIBLE_POINT
Solve Time: 42.05 sec
Objective Value: 2184.000000
Number of Nodes:      3

CutInfo: [phase] num / time (sec) 
ZLP             [phase1]     0 / 0.00 [rLC]     0 / 0.00 [rUC]     0 / 0.00 [sLC]     0 / 0.00 [sUC]     0 / 0.00 
OldSubmodular   [phase1]     0 / 0.00 [rLC]     0 / 0.00 [rUC]     0 / 0.00 [sLC]     0 / 0.00 [sUC]     0 / 0.00 
NewSubmodular   [phase1]     0 / 0.00 [rLC]    19 / 23.31 [rUC]    32 / 3.45 [sLC]     0 / 3.26 [sUC]    82 / 9.88 
PMP             [phase1]     0 / 0.00 [rLC]     7 / 20.32 [rUC]     0 / 0.00 [sLC]     1 / 3.23 [sUC]     0 / 0.00 
Separation Round: [phase1] 0  [rLC] 16  [rUC] 12  [sLC] 1  [sUC] 41
Root Best Bound 2184.000000
Root Best Integer: 2184.000000
Best Bound: 2184.000000
Best Integer: 2184.000000

